(set-logic LIA)

(declare-const x3 Int)
(declare-const x3! Int)
(declare-const x2 Int)
(declare-const x2! Int)
(declare-const x1 Int)
(declare-const x1! Int)
(declare-const d3 Int)
(declare-const d3! Int)
(declare-const d2 Int)
(declare-const d2! Int)
(declare-const d1 Int)
(declare-const d1! Int)

(declare-const x3_32 Int)
(declare-const x3_25 Int)
(declare-const x3_0 Int)
(declare-const x2_31 Int)
(declare-const x2_24 Int)
(declare-const x2_0 Int)
(declare-const x1_30 Int)
(declare-const x1_23 Int)
(declare-const x1_22 Int)
(declare-const d3_21 Int)
(declare-const d2_20 Int)
(declare-const d1_19 Int)

(define-fun inv-f((d1 Int)(d2 Int)(d3 Int)(x1 Int)(x2 Int)(x3 Int)) Bool
